(set-option :print-success false)
(set-logic QF_UF)
(declare-sort x131 0)
(declare-sort x38 0)
(declare-fun x87 () x38)
(declare-fun x74 () x38)
(declare-fun x80 () x38)
(declare-fun x130 (x38 x38) x38)
(declare-fun x36 () x38)
(declare-fun x107 (x38 x38) x38)
(declare-fun x89 () x38)
(assert (let ((x41 (x107 x36 x89)) (x98 (x107 x89 x80)) (x56 (x107 x80 x80)) (x97 (x107 x89 x74)) (x20 (x107 x89 x87)) (x37 (x107 x80 x89)) (x49 (x107 x87 x36)) (x144 (x107 x87 x87)) (x35 (x107 x87 x89)) (x64 (x107 x74 x80)) (x120 (x107 x87 x74)) (x48 (x107 x36 x36)) (x106 (x107 x80 x36)) (x79 (x107 x89 x89)) (x121 (x107 x74 x87)) (x22 (x107 x74 x36)) (x156 (x107 x36 x87)) (x85 (x107 x80 x74)) (x10 (x107 x87 x80)) (x24 (x107 x36 x74)) (x59 (x107 x80 x87)) (x152 (x107 x74 x89)) (x72 (x107 x74 x74)) (x140 (x107 x36 x80)) (x84 (x107 x89 x36))) (and (and (and (and (and (and (not (= x56 x106)) (and (not (= x106 x37)) (and (and (and (not (= x59 x37)) (and (not (= x59 x85)) (not (= x106 x59)))) (not (= x56 x59))) (not (= x106 x85))))) (not (= x85 x37))) (not (= x85 x56))) (not (= x56 x37))) (and (and (not (= x98 x79)) (and (and (and (and (not (= x84 x79)) (and (not (= x97 x84)) (and (and (not (= x79 x20)) (and (not (= x84 x20)) (not (= x97 x20)))) (not (= x20 x98))))) (not (= x84 x98))) (not (= x97 x79))) (not (= x97 x98)))) (and (and (and (and (not (= x10 x120)) (and (and (not (= x10 x49)) (and (not (= x35 x49)) (and (and (not (= x144 x10)) (and (and (not (= x120 x144)) (not (= x144 x49))) (not (= x144 x35)))) (not (= x49 x120))))) (not (= x35 x120)))) (not (= x35 x10))) (and (and (and (and (not (= x48 x140)) (and (and (not (= x48 x24)) (and (not (= x156 x140)) (and (not (= x41 x156)) (and (not (= x156 x24)) (not (= x156 x48)))))) (not (= x41 x48)))) (not (= x41 x24))) (not (= x24 x140))) (not (= x41 x140)))) (and (not (= x64 x152)) (and (not (= x64 x72)) (and (not (= x152 x72)) (and (not (= x64 x22)) (and (and (and (and (and (not (= x72 x121)) (not (= x121 x22))) (not (= x121 x152))) (not (= x64 x121))) (not (= x72 x22))) (not (= x22 x152)))))))))) (and (and (and (and (not (= x64 x98)) (and (not (= x140 x56)) (and (and (and (not (= x56 x10)) (and (not (= x98 x10)) (and (not (= x10 x140)) (not (= x64 x10))))) (not (= x64 x140))) (not (= x140 x98))))) (not (= x56 x64))) (not (= x98 x56))) (and (and (and (not (= x97 x85)) (and (not (= x72 x85)) (and (not (= x72 x97)) (and (not (= x24 x85)) (and (and (and (not (= x120 x85)) (and (not (= x120 x97)) (and (not (= x120 x24)) (not (= x72 x120))))) (not (= x24 x72))) (not (= x24 x97))))))) (and (and (not (= x106 x84)) (and (and (and (not (= x48 x106)) (and (not (= x48 x84)) (and (not (= x22 x48)) (and (and (not (= x49 x84)) (and (not (= x22 x49)) (not (= x49 x48)))) (not (= x106 x49)))))) (not (= x22 x84))) (not (= x22 x106)))) (and (not (= x59 x20)) (and (and (and (and (not (= x20 x156)) (and (not (= x156 x121)) (and (not (= x144 x59)) (and (not (= x20 x144)) (and (not (= x156 x144)) (not (= x144 x121))))))) (not (= x59 x156))) (not (= x121 x20))) (not (= x121 x59)))))) (and (and (not (= x152 x37)) (and (and (not (= x37 x41)) (and (and (and (not (= x37 x35)) (and (and (not (= x35 x41)) (not (= x35 x152))) (not (= x79 x35)))) (not (= x152 x41))) (not (= x41 x79)))) (not (= x79 x152)))) (not (= x79 x37))))))))
(assert (or (= (x107 x80 x80) x80) (or (= (x107 x89 x89) x89) (or (= (x107 x74 x74) x74) (or (= x36 (x107 x36 x36)) (= (x107 x87 x87) x87))))))
(assert (let ((x144 (= (x107 x87 x87) x87)) (x22 (= x74 (x107 x74 x74))) (x106 (= (x107 x80 x80) x80)) (x84 (= x89 (x107 x89 x89))) (x121 (= x36 (x107 x36 x36)))) (let ((x59 (not x22)) (x49 (not x84)) (x156 (not x144)) (x20 (not x121)) (x48 (not x106))) (or (or (and x106 x48) (or (or (and (= (x107 x80 x74) x80) x59) (or (and (= (x107 x80 x87) x80) x156) (and x20 (= (x107 x80 x36) x80)))) (and (= (x107 x80 x89) x80) x49))) (or (or (or (or (or (and x20 (= (x107 x89 x36) x89)) (and (= (x107 x89 x87) x89) x156)) (and x59 (= x89 (x107 x89 x74)))) (and x84 x49)) (and (= (x107 x89 x80) x89) x48)) (or (or (or (or (or (and x59 (= x87 (x107 x87 x74))) (or (and x144 x156) (and x20 (= (x107 x87 x36) x87)))) (and x49 (= (x107 x87 x89) x87))) (and x48 (= (x107 x87 x80) x87))) (or (or (or (or (and x20 x121) (and (= x36 (x107 x36 x87)) x156)) (and x59 (= x36 (x107 x36 x74)))) (and (= x36 (x107 x36 x89)) x49)) (and (= (x107 x36 x80) x36) x48))) (or (and (= x74 (x107 x74 x80)) x48) (or (and x49 (= x74 (x107 x74 x89))) (or (or (and x20 (= x74 (x107 x74 x36))) (and x156 (= x74 (x107 x74 x87)))) (and x22 x59))))))))))
(assert (and (and (and (and (or (or (= (x107 (x107 x89 x87) x87) x89) (or (= (x107 (x107 x74 x87) x87) x74) (or (= x87 (x107 (x107 x87 x87) x87)) (= (x107 (x107 x36 x87) x87) x36)))) (= x80 (x107 (x107 x80 x87) x87))) (or (or (or (= x74 (x107 (x107 x74 x36) x36)) (or (= (x107 (x107 x36 x36) x36) x36) (= x87 (x107 (x107 x87 x36) x36)))) (= (x107 (x107 x89 x36) x36) x89)) (= (x107 (x107 x80 x36) x36) x80))) (or (or (= x89 (x107 (x107 x89 x74) x74)) (or (= (x107 (x107 x74 x74) x74) x74) (or (= x36 (x107 (x107 x36 x74) x74)) (= x87 (x107 (x107 x87 x74) x74))))) (= (x107 (x107 x80 x74) x74) x80))) (or (= (x107 (x107 x80 x89) x89) x80) (or (or (= (x107 (x107 x74 x89) x89) x74) (or (= (x107 (x107 x36 x89) x89) x36) (= x87 (x107 (x107 x87 x89) x89)))) (= x89 (x107 (x107 x89 x89) x89))))) (or (or (or (= (x107 (x107 x74 x80) x80) x74) (or (= x36 (x107 (x107 x36 x80) x80)) (= x87 (x107 (x107 x87 x80) x80)))) (= x89 (x107 (x107 x89 x80) x80))) (= (x107 (x107 x80 x80) x80) x80))))
(assert (not (and (and (= x36 (x107 x80 x89)) (and (= x74 (x107 x80 x74)) (and (and (and (and (and (= x87 (x107 x89 x74)) (and (and (and (and (= x74 (x107 x74 x89)) (and (= x80 (x107 x74 x74)) (and (and (and (= x74 (x107 x36 x80)) (and (and (= (x107 x36 x74) x36) (and (= x87 (x107 x36 x36)) (and (and (and (and (and (= x36 (x107 x87 x87)) (= (x107 x87 x36) x74)) (= x89 (x107 x87 x74))) (= (x107 x87 x89) x87)) (= x80 (x107 x87 x80))) (= x89 (x107 x36 x87))))) (= (x107 x36 x89) x80))) (= x87 (x107 x74 x87))) (= x36 (x107 x74 x36))))) (= (x107 x74 x80) x89)) (= x74 (x107 x89 x87))) (= (x107 x89 x36) x80))) (= x89 (x107 x89 x89))) (= x36 (x107 x89 x80))) (= x80 (x107 x80 x87))) (= (x107 x80 x36) x89)))) (= (x107 x80 x80) x87))))
(assert (or (and (and (and (and (not (= x36 (x107 x80 (x107 x80 x36)))) (not (= x87 (x107 x80 (x107 x80 x87))))) (not (= (x107 x80 (x107 x80 x74)) x74))) (not (= (x107 x80 (x107 x80 x89)) x89))) (not (= x80 (x107 x80 (x107 x80 x80))))) (or (and (not (= (x107 x89 (x107 x89 x80)) x80)) (and (and (not (= x74 (x107 x89 (x107 x89 x74)))) (and (not (= (x107 x89 (x107 x89 x87)) x87)) (not (= (x107 x89 (x107 x89 x36)) x36)))) (not (= (x107 x89 (x107 x89 x89)) x89)))) (or (and (and (and (and (not (= x36 (x107 x74 (x107 x74 x36)))) (not (= (x107 x74 (x107 x74 x87)) x87))) (not (= x74 (x107 x74 (x107 x74 x74))))) (not (= (x107 x74 (x107 x74 x89)) x89))) (not (= x80 (x107 x74 (x107 x74 x80))))) (or (and (and (and (and (not (= x87 (x107 x36 (x107 x36 x87)))) (not (= (x107 x36 (x107 x36 x36)) x36))) (not (= (x107 x36 (x107 x36 x74)) x74))) (not (= x89 (x107 x36 (x107 x36 x89))))) (not (= x80 (x107 x36 (x107 x36 x80))))) (and (and (not (= (x107 x87 (x107 x87 x89)) x89)) (and (and (not (= (x107 x87 (x107 x87 x87)) x87)) (not (= x36 (x107 x87 (x107 x87 x36))))) (not (= x74 (x107 x87 (x107 x87 x74)))))) (not (= (x107 x87 (x107 x87 x80)) x80))))))))
(assert (or (and (and (and (and (not (= x80 (x107 x87 (x107 x80 x87)))) (not (= (x107 x36 (x107 x80 x36)) x80))) (not (= (x107 x74 (x107 x80 x74)) x80))) (not (= x80 (x107 x89 (x107 x80 x89))))) (not (= (x107 x80 (x107 x80 x80)) x80))) (or (or (and (not (= (x107 x80 (x107 x74 x80)) x74)) (and (and (not (= (x107 x74 (x107 x74 x74)) x74)) (and (not (= (x107 x87 (x107 x74 x87)) x74)) (not (= x74 (x107 x36 (x107 x74 x36)))))) (not (= x74 (x107 x89 (x107 x74 x89)))))) (or (and (and (not (= (x107 x89 (x107 x87 x89)) x87)) (and (and (not (= (x107 x36 (x107 x87 x36)) x87)) (not (= x87 (x107 x87 (x107 x87 x87))))) (not (= x87 (x107 x74 (x107 x87 x74)))))) (not (= (x107 x80 (x107 x87 x80)) x87))) (and (and (and (and (not (= (x107 x36 (x107 x36 x36)) x36)) (not (= (x107 x87 (x107 x36 x87)) x36))) (not (= x36 (x107 x74 (x107 x36 x74))))) (not (= x36 (x107 x89 (x107 x36 x89))))) (not (= x36 (x107 x80 (x107 x36 x80))))))) (and (not (= x89 (x107 x80 (x107 x89 x80)))) (and (not (= (x107 x89 (x107 x89 x89)) x89)) (and (and (not (= x89 (x107 x36 (x107 x89 x36)))) (not (= (x107 x87 (x107 x89 x87)) x89))) (not (= x89 (x107 x74 (x107 x89 x74))))))))))
(assert (let ((x147 (x107 x36 x36)) (x27 (x107 x89 x36)) (x150 (x107 x89 x74)) (x4 (x107 x87 x36)) (x14 (x107 x87 x87)) (x102 (x107 x80 x89)) (x26 (x107 x74 x87)) (x39 (x107 x36 x89)) (x25 (x107 x74 x89)) (x54 (x107 x80 x87)) (x57 (x107 x74 x80)) (x16 (x107 x36 x80)) (x91 (x107 x80 x74)) (x159 (x107 x74 x74)) (x9 (x107 x80 x80)) (x73 (x107 x89 x80)) (x13 (x107 x87 x74)) (x143 (x107 x36 x74)) (x55 (x107 x89 x89)) (x11 (x107 x74 x36)) (x69 (x107 x87 x89)) (x45 (x107 x36 x87)) (x118 (x107 x80 x36)) (x75 (x107 x87 x80)) (x95 (x107 x89 x87))) (let ((x59 (not (= x87 x26))) (x72 (not (= x87 x39))) (x30 (not (= x54 x80))) (x62 (not (= x36 x143))) (x153 (not (= x45 x36))) (x105 (not (= x74 x91))) (x156 (not (= x45 x87))) (x64 (not (= x87 x102))) (x97 (not (= x150 x87))) (x19 (not (= x69 x89))) (x52 (not (= x147 x36))) (x129 (not (= x74 x9))) (x1 (not (= x91 x89))) (x145 (not (= x36 x75))) (x10 (not (= x91 x87))) (x7 (not (= x25 x36))) (x158 (not (= x36 x95))) (x140 (not (= x57 x87))) (x50 (not (= x143 x74))) (x12 (not (= x36 x14))) (x113 (not (= x74 x75))) (x32 (not (= x74 x150))) (x82 (not (= x13 x89))) (x100 (not (= x147 x89))) (x33 (not (= x102 x80))) (x24 (not (= x27 x87))) (x94 (not (= x36 x55))) (x51 (not (= x26 x74))) (x122 (not (= x159 x74))) (x2 (not (= x150 x89))) (x136 (not (= x14 x80))) (x22 (not (= x143 x87))) (x144 (not (= x14 x87))) (x41 (not (= x87 x54))) (x76 (not (= x27 x74))) (x40 (not (= x74 x16))) (x3 (not (= x74 x57))) (x157 (not (= x36 x150))) (x125 (not (= x14 x74))) (x47 (not (= x147 x80))) (x128 (not (= x45 x74))) (x88 (not (= x14 x89))) (x120 (not (= x87 x69))) (x114 (not (= x69 x74))) (x92 (not (= x89 x118))) (x127 (not (= x95 x80))) (x84 (not (= x159 x87))) (x5 (not (= x89 x16))) (x66 (not (= x118 x36))) (x96 (not (= x9 x36))) (x63 (not (= x74 x4))) (x104 (not (= x73 x89))) (x119 (not (= x75 x80))) (x126 (not (= x143 x89))) (x56 (not (= x87 x9))) (x111 (not (= x73 x74))) (x112 (not (= x13 x80))) (x99 (not (= x74 x55))) (x123 (not (= x27 x36))) (x6 (not (= x74 x11))) (x31 (not (= x36 x54))) (x53 (not (= x36 x39))) (x44 (not (= x89 x11))) (x81 (not (= x80 x45))) (x42 (not (= x74 x54))) (x46 (not (= x11 x36))) (x79 (not (= x87 x118))) (x115 (not (= x69 x80))) (x35 (not (= x87 x55))) (x34 (not (= x74 x147))) (x93 (not (= x80 x16))) (x154 (not (= x89 x159))) (x124 (not (= x80 x143))) (x142 (not (= x11 x80))) (x116 (not (= x27 x80))) (x23 (not (= x80 x9))) (x155 (not (= x80 x4))) (x21 (not (= x89 x9))) (x49 (not (= x13 x87))) (x141 (not (= x89 x102))) (x151 (not (= x95 x89))) (x103 (not (= x89 x25))) (x71 (not (= x118 x80))) (x83 (not (= x102 x74))) (x8 (not (= x80 x26))) (x110 (not (= x54 x89))) (x67 (not (= x36 x57))) (x61 (not (= x39 x89))) (x133 (not (= x57 x80))) (x138 (not (= x36 x159))) (x29 (not (= x89 x4))) (x15 (not (= x36 x16))) (x152 (not (= x87 x75))) (x43 (not (= x13 x74))) (x117 (not (= x74 x118))) (x135 (not (= x13 x36))) (x134 (not (= x69 x36))) (x28 (not (= x55 x89))) (x70 (not (= x80 x91))) (x85 (not (= x25 x87))) (x108 (not (= x102 x36))) (x77 (not (= x74 x25))) (x60 (not (= x26 x36))) (x101 (not (= x74 x95))) (x78 (not (= x150 x80))) (x139 (not (= x75 x89))) (x106 (not (= x87 x95))) (x98 (not (= x87 x73))) (x109 (not (= x89 x27))) (x17 (not (= x80 x159))) (x137 (not (= x36 x91))) (x90 (not (= x39 x80))) (x37 (not (= x87 x16))) (x65 (not (= x36 x4))) (x132 (not (= x39 x74))) (x121 (not (= x87 x4))) (x148 (not (= x57 x89))) (x86 (not (= x36 x73))) (x48 (not (= x87 x11))) (x20 (not (= x87 x147))) (x68 (not (= x80 x55))) (x149 (not (= x73 x80))) (x58 (not (= x89 x26))) (x18 (not (= x25 x80))) (x146 (not (= x89 x45)))) (or (and (and (and (or x33 x149) (and (or x70 x133) (and (or x30 x119) (or x93 x71)))) (or x23 x23)) (and (and (and (and (or x18 x78) (and (and (or x8 x112) (or x142 x124)) (or x17 x17))) (or x70 x133)) (and (and (or x30 x119) (and (and (and (or x136 x136) (or x155 x81)) (or x8 x112)) (or x127 x115))) (and (or x93 x71) (and (or x90 x116) (and (and (or x81 x155) (or x47 x47)) (or x124 x142)))))) (and (or x33 x149) (and (or x68 x68) (and (and (or x90 x116) (or x115 x127)) (or x78 x18)))))) (or (or (or (and (and (and (or x98 x64) (and (and (or x97 x85) (and (or x24 x72) (or x120 x106))) (or x35 x35))) (and (and (and (or x152 x41) (and (and (and (or x144 x144) (or x156 x121)) (or x59 x49)) (or x106 x120))) (and (and (and (or x48 x22) (and (or x20 x20) (or x121 x156))) (or x72 x24)) (or x79 x37))) (and (and (or x97 x85) (and (and (or x48 x22) (or x59 x49)) (or x84 x84))) (or x140 x10)))) (and (or x56 x56) (and (and (or x140 x10) (and (or x41 x152) (or x79 x37))) (or x98 x64)))) (and (and (and (and (and (and (or x158 x134) (and (and (or x12 x12) (or x153 x65)) (or x135 x60))) (or x145 x31)) (and (and (and (and (or x52 x52) (or x65 x153)) (or x46 x62)) (or x53 x123)) (or x66 x15))) (and (or x137 x67) (and (and (or x138 x138) (and (or x60 x135) (or x46 x62))) (or x157 x7)))) (and (or x86 x108) (and (and (or x157 x7) (and (or x53 x123) (or x158 x134))) (or x94 x94)))) (and (or x96 x96) (and (and (or x137 x67) (and (or x66 x15) (or x31 x145))) (or x86 x108))))) (and (and (and (or x83 x111) (and (or x3 x105) (and (or x113 x42) (or x117 x40)))) (or x129 x129)) (and (and (and (or x3 x105) (and (and (and (or x50 x6) (or x51 x43)) (or x122 x122)) (or x77 x32))) (and (and (or x42 x113) (and (and (or x43 x51) (and (or x128 x63) (or x125 x125))) (or x114 x101))) (and (or x40 x117) (and (or x132 x76) (and (and (or x34 x34) (or x128 x63)) (or x50 x6)))))) (and (or x83 x111) (and (and (and (or x114 x101) (or x132 x76)) (or x32 x77)) (or x99 x99)))))) (and (and (and (or x141 x104) (and (or x28 x28) (and (or x103 x2) (and (or x61 x109) (or x19 x151))))) (and (and (and (and (or x109 x61) (and (and (or x146 x29) (or x100 x100)) (or x126 x44))) (or x5 x92)) (and (and (or x151 x19) (and (and (or x29 x146) (or x88 x88)) (or x58 x82))) (or x110 x139))) (and (or x1 x148) (and (or x2 x103) (and (or x154 x154) (and (or x82 x58) (or x44 x126))))))) (and (and (and (or x148 x1) (and (or x5 x92) (or x139 x110))) (or x104 x141)) (or x21 x21))))))))
(assert (and (= x80 (x107 x89 x36)) (and (= (x107 x87 x74) x89) (and (= x74 (x107 x87 x36)) (= x36 (x107 x87 x87))))))
(assert (let ((x140 (x107 x36 x80)) (x12 (x107 x80 x36)) (x50 (x107 x80 x89)) (x139 (x107 x80 x80)) (x59 (x107 x87 x89)) (x49 (x107 x87 x80)) (x16 (x107 x74 x74)) (x84 (x107 x74 x87)) (x121 (x107 x87 x36)) (x37 (x107 x36 x74)) (x156 (x107 x87 x87)) (x10 (x107 x36 x89)) (x20 (x107 x87 x74)) (x106 (x107 x89 x87)) (x128 (x107 x89 x89)) (x63 (x107 x89 x80)) (x159 (x107 x89 x74)) (x138 (x107 x80 x74)) (x60 (x107 x74 x80)) (x22 (x107 x36 x87)) (x120 (x107 x80 x87)) (x14 (x107 x89 x36)) (x79 (x107 x36 x36)) (x118 (x107 x74 x89)) (x56 (x107 x74 x36))) (let ((x95 (= x89 x79)) (x29 (= x80 x118)) (x7 (= x89 x16)) (x54 (= x80 x121)) (x35 (= x121 x87)) (x30 (= x120 x80)) (x47 (= x140 x74)) (x143 (= x87 x37)) (x25 (= x84 x74)) (x66 (= x14 x87)) (x90 (= x140 x89)) (x141 (= x36 x139)) (x109 (= x87 x63)) (x8 (= x60 x74)) (x9 (= x106 x36)) (x157 (= x89 x37)) (x105 (= x89 x118)) (x127 (= x89 x138)) (x100 (= x80 x128)) (x112 (= x74 x63)) (x6 (= x36 x128)) (x62 (= x36 x16)) (x146 (= x80 x10)) (x78 (= x89 x60)) (x46 (= x37 x36)) (x43 (= x118 x36)) (x110 (= x36 x50)) (x5 (= x36 x140)) (x132 (= x10 x74)) (x98 (= x79 x36)) (x137 (= x59 x87)) (x19 (= x60 x87)) (x13 (= x74 x79)) (x40 (= x10 x89)) (x42 (= x14 x89)) (x116 (= x49 x89)) (x94 (= x56 x80)) (x15 (= x87 x159)) (x52 (= x20 x87)) (x28 (= x36 x138)) (x108 (= x118 x87)) (x148 (= x63 x36)) (x144 (= x87 x156)) (x103 (= x12 x36)) (x149 (= x63 x80)) (x92 (= x49 x36)) (x61 (= x87 x139)) (x65 (= x87 x84)) (x123 (= x89 x56)) (x119 (= x12 x80)) (x102 (= x37 x80)) (x1 (= x36 x60)) (x57 (= x74 x20)) (x31 (= x16 x80)) (x114 (= x74 x159)) (x77 (= x128 x74)) (x3 (= x89 x128)) (x85 (= x22 x87)) (x117 (= x89 x59)) (x32 (= x118 x74)) (x41 (= x79 x87)) (x44 (= x138 x87)) (x91 (= x37 x74)) (x2 (= x120 x36)) (x147 (= x56 x87)) (x45 (= x121 x74)) (x86 (= x87 x128)) (x101 (= x14 x74)) (x24 (= x156 x74)) (x133 (= x140 x80)) (x73 (= x20 x80)) (x68 (= x89 x139)) (x72 (= x89 x156)) (x76 (= x59 x74)) (x58 (= x87 x120)) (x99 (= x106 x89)) (x21 (= x74 x12)) (x126 (= x50 x87)) (x64 (= x36 x121)) (x67 (= x87 x10)) (x96 (= x14 x36)) (x113 (= x89 x159)) (x4 (= x74 x22)) (x122 (= x74 x106)) (x17 (= x12 x89)) (x129 (= x159 x80)) (x97 (= x80 x156)) (x82 (= x87 x12)) (x83 (= x80 x106)) (x81 (= x50 x74)) (x33 (= x80 x60)) (x124 (= x89 x120)) (x27 (= x36 x56)) (x155 (= x74 x49)) (x39 (= x84 x36)) (x11 (= x16 x87)) (x70 (= x49 x80)) (x135 (= x20 x36)) (x134 (= x84 x89)) (x48 (= x36 x156)) (x151 (= x140 x87)) (x53 (= x20 x89)) (x75 (= x80 x22)) (x154 (= x87 x49)) (x158 (= x16 x74)) (x111 (= x80 x14)) (x125 (= x36 x159)) (x34 (= x59 x36)) (x115 (= x50 x89)) (x23 (= x80 x139)) (x93 (= x80 x50)) (x142 (= x139 x74)) (x26 (= x89 x22)) (x104 (= x74 x120)) (x136 (= x74 x138)) (x18 (= x89 x63)) (x152 (= x36 x22)) (x150 (= x56 x74)) (x153 (= x79 x80)) (x71 (= x80 x138)) (x55 (= x84 x80)) (x145 (= x87 x106)) (x88 (= x59 x80)) (x51 (= x10 x36)) (x69 (= x121 x89))) (and (and (and (and (and (and (and (or (or (or x134 (or x26 x72)) x99) x124) (or (or (or x53 (or x69 x72)) x117) x116)) (and (and (or (or x76 (or (or x45 x24) x57)) x155) (or (or x122 (or (or x24 x4) x25)) x104)) (and (and (or x92 (or x34 (or (or x48 x64) x135))) (or (or (or (or x48 x152) x39) x9) x2)) (and (or (or x145 (or x65 (or x85 x144))) x58) (or (or x137 (or (or x35 x144) x52)) x154))))) (and (or (or (or x73 (or x97 x54)) x88) x70) (or (or x83 (or (or x75 x97) x55)) x30))) (and (and (or (or x146 (or x102 (or x153 x75))) x133) (or (or (or (or x54 x153) x94) x111) x119)) (and (and (and (or (or x101 (or (or x13 x45) x150)) x21) (or (or (or (or x13 x4) x91) x132) x47)) (and (and (or (or (or x147 (or x35 x41)) x66) x82) (or (or (or x143 (or x85 x41)) x67) x151)) (and (or x5 (or x51 (or x46 (or x98 x152)))) (or x103 (or (or x27 (or x98 x64)) x96))))) (and (or x90 (or x40 (or (or x26 x95) x157))) (or x17 (or (or (or x95 x69) x123) x42)))))) (and (and (or (or (or x31 (or x102 x73)) x129) x71) (or (or x29 (or (or x94 x55) x31)) x33)) (and (and (and (and (or (or x125 (or (or x135 x46) x62)) x28) (or (or (or x62 (or x39 x27)) x43) x1)) (and (or x44 (or (or (or x52 x143) x11) x15)) (or (or (or (or x147 x65) x11) x108) x19))) (and (or x8 (or (or (or x150 x25) x158) x32)) (or (or x114 (or (or x57 x91) x158)) x136))) (and (or (or (or (or x53 x157) x7) x113) x127) (or (or (or x7 (or x134 x123)) x105) x78))))) (and (and (or (or (or x129 (or x111 x83)) x100) x149) (or x93 (or x100 (or (or x88 x146) x29)))) (and (and (and (or x112 (or x77 (or x114 (or x101 x122)))) (or (or (or x32 (or x76 x132)) x77) x81)) (and (and (or x148 (or x6 (or (or x9 x96) x125))) (or (or x6 (or x43 (or x51 x34))) x110)) (and (or x109 (or x86 (or x15 (or x145 x66)))) (or x126 (or (or x108 (or x137 x67)) x86))))) (and (or (or (or x113 (or x42 x99)) x3) x18) (or x115 (or x3 (or x105 (or x117 x40)))))))) (and (and (or x23 (or (or (or x133 x70) x33) x149)) (or x23 (or x93 (or (or x30 x119) x71)))) (and (and (or (or (or (or x124 x17) x127) x115) x68) (or x68 (or x18 (or (or x116 x90) x78)))) (and (and (or x142 (or (or (or x47 x155) x8) x112)) (or (or (or (or x21 x104) x136) x81) x142)) (and (and (or x61 (or (or (or x154 x151) x19) x109)) (or x61 (or (or x44 (or x82 x58)) x126))) (and (or (or (or (or x5 x92) x1) x148) x141) (or (or x110 (or x28 (or x2 x103))) x141))))))))))
(assert (let ((x20 (x107 x89 x89)) (x59 (x107 x80 x80)) (x121 (x107 x74 x74)) (x156 (x107 x36 x36)) (x144 (x107 x87 x87))) (or (and (not (= x80 x59)) (and (not (= x20 x80)) (and (and (not (= x144 x80)) (not (= x80 x156))) (not (= x80 x121))))) (or (or (and (not (= x74 x59)) (and (and (and (not (= x74 x144)) (not (= x156 x74))) (not (= x74 x121))) (not (= x74 x20)))) (or (and (not (= x59 x36)) (and (and (not (= x121 x36)) (and (not (= x156 x36)) (not (= x36 x144)))) (not (= x20 x36)))) (and (and (and (not (= x87 x121)) (and (not (= x87 x144)) (not (= x156 x87)))) (not (= x20 x87))) (not (= x87 x59))))) (and (not (= x89 x59)) (and (not (= x20 x89)) (and (not (= x89 x121)) (and (not (= x144 x89)) (not (= x89 x156))))))))))
(assert (let ((x10 (x107 x87 x80)) (x156 (x107 x36 x87)) (x37 (x107 x80 x89)) (x20 (x107 x89 x87)) (x64 (x107 x74 x80)) (x22 (x107 x74 x36)) (x121 (x107 x74 x87)) (x84 (x107 x89 x36)) (x106 (x107 x80 x36)) (x140 (x107 x36 x80)) (x24 (x107 x36 x74)) (x41 (x107 x36 x89)) (x152 (x107 x74 x89)) (x72 (x107 x74 x74)) (x120 (x107 x87 x74)) (x48 (x107 x36 x36)) (x98 (x107 x89 x80)) (x56 (x107 x80 x80)) (x144 (x107 x87 x87)) (x97 (x107 x89 x74)) (x35 (x107 x87 x89)) (x79 (x107 x89 x89)) (x85 (x107 x80 x74)) (x49 (x107 x87 x36)) (x59 (x107 x80 x87))) (and (or (= (x107 x56 x56) x80) (or (or (or (= x36 (x107 x140 x140)) (= (x107 x10 x10) x87)) (= x74 (x107 x64 x64))) (= x89 (x107 x98 x98)))) (and (and (and (or (= x80 (x107 x59 x59)) (or (= (x107 x20 x20) x89) (or (or (= (x107 x144 x144) x87) (= x36 (x107 x156 x156))) (= (x107 x121 x121) x74)))) (or (= (x107 x106 x106) x80) (or (or (= x74 (x107 x22 x22)) (or (= x87 (x107 x49 x49)) (= x36 (x107 x48 x48)))) (= x89 (x107 x84 x84))))) (or (= x80 (x107 x85 x85)) (or (= (x107 x97 x97) x89) (or (= x74 (x107 x72 x72)) (or (= x87 (x107 x120 x120)) (= x36 (x107 x24 x24))))))) (or (or (= (x107 x79 x79) x89) (or (or (= (x107 x35 x35) x87) (= (x107 x41 x41) x36)) (= (x107 x152 x152) x74))) (= x80 (x107 x37 x37)))))))
(assert (let ((x156 (x107 (x107 x36 x36) x36)) (x59 (x107 (x107 x80 x80) x80)) (x20 (x107 (x107 x89 x89) x89)) (x121 (x107 (x107 x74 x74) x74)) (x144 (x107 (x107 x87 x87) x87))) (or (and (and (not (= x20 x80)) (and (not (= x121 x80)) (and (not (= x156 x80)) (not (= x144 x80))))) (not (= x59 x80))) (or (and (and (not (= x89 x20)) (and (and (not (= x89 x156)) (not (= x89 x144))) (not (= x121 x89)))) (not (= x59 x89))) (or (or (and (and (and (and (not (= x144 x36)) (not (= x156 x36))) (not (= x121 x36))) (not (= x36 x20))) (not (= x59 x36))) (and (not (= x87 x59)) (and (not (= x20 x87)) (and (and (not (= x87 x144)) (not (= x87 x156))) (not (= x121 x87)))))) (and (and (not (= x20 x74)) (and (not (= x121 x74)) (and (not (= x74 x144)) (not (= x156 x74))))) (not (= x59 x74))))))))
(assert (let ((x24 (x107 x74 x36)) (x152 (x107 x89 x74)) (x22 (x107 x36 x74)) (x41 (x107 x89 x36)) (x37 (x107 x89 x80)) (x59 (x107 x87 x80)) (x106 (x107 x36 x80)) (x72 (x107 x74 x74)) (x10 (x107 x80 x87)) (x120 (x107 x74 x87)) (x20 (x107 x87 x89)) (x97 (x107 x74 x89)) (x79 (x107 x89 x89)) (x140 (x107 x80 x36)) (x35 (x107 x89 x87)) (x98 (x107 x80 x89)) (x85 (x107 x74 x80)) (x144 (x107 x87 x87)) (x49 (x107 x36 x87)) (x84 (x107 x36 x89)) (x64 (x107 x80 x74)) (x121 (x107 x87 x74)) (x48 (x107 x36 x36)) (x156 (x107 x87 x36)) (x56 (x107 x80 x80))) (and (and (and (and (and (and (and (and (or (or (or (= x144 x74) (or (= x144 x36) (= x144 x87))) (= x89 x144)) (= x144 x80)) (or (= x156 x80) (or (= x89 x156) (or (= x156 x74) (or (= x156 x87) (= x36 x156)))))) (or (or (or (= x121 x74) (or (= x121 x36) (= x87 x121))) (= x89 x121)) (= x80 x121))) (or (or (or (= x74 x20) (or (= x20 x87) (= x20 x36))) (= x20 x89)) (= x20 x80))) (or (= x59 x80) (or (or (= x74 x59) (or (= x36 x59) (= x87 x59))) (= x59 x89)))) (and (or (= x106 x80) (or (= x89 x106) (or (or (= x106 x36) (= x106 x87)) (= x74 x106)))) (and (and (or (or (= x89 x22) (or (= x74 x22) (or (= x22 x36) (= x87 x22)))) (= x80 x22)) (and (or (= x80 x48) (or (= x89 x48) (or (= x74 x48) (or (= x48 x87) (= x48 x36))))) (or (= x49 x80) (or (= x49 x89) (or (= x49 x74) (or (= x49 x87) (= x36 x49))))))) (or (or (= x89 x84) (or (= x74 x84) (or (= x36 x84) (= x87 x84)))) (= x84 x80))))) (and (or (or (or (= x74 x85) (or (= x87 x85) (= x85 x36))) (= x85 x89)) (= x80 x85)) (and (or (= x97 x80) (or (= x89 x97) (or (= x97 x74) (or (= x36 x97) (= x87 x97))))) (and (or (or (= x89 x72) (or (or (= x72 x36) (= x87 x72)) (= x72 x74))) (= x72 x80)) (and (or (or (or (or (= x24 x36) (= x24 x87)) (= x74 x24)) (= x24 x89)) (= x80 x24)) (or (= x80 x120) (or (or (= x120 x74) (or (= x36 x120) (= x120 x87))) (= x89 x120)))))))) (and (and (and (and (or (or (= x89 x41) (or (= x74 x41) (or (= x41 x87) (= x36 x41)))) (= x41 x80)) (or (or (= x89 x35) (or (= x35 x74) (or (= x35 x87) (= x35 x36)))) (= x80 x35))) (or (= x152 x80) (or (= x152 x89) (or (or (= x152 x36) (= x87 x152)) (= x74 x152))))) (or (= x79 x80) (or (or (or (= x79 x36) (= x79 x87)) (= x74 x79)) (= x79 x89)))) (or (= x37 x80) (or (or (= x74 x37) (or (= x37 x87) (= x36 x37))) (= x89 x37))))) (and (and (and (or (or (or (= x74 x64) (or (= x36 x64) (= x87 x64))) (= x89 x64)) (= x80 x64)) (and (or (or (= x89 x10) (or (= x10 x74) (or (= x10 x87) (= x10 x36)))) (= x80 x10)) (or (or (= x89 x140) (or (or (= x140 x87) (= x36 x140)) (= x74 x140))) (= x80 x140)))) (or (= x98 x80) (or (= x89 x98) (or (= x98 x74) (or (= x36 x98) (= x87 x98)))))) (or (= x56 x80) (or (or (or (= x36 x56) (= x56 x87)) (= x56 x74)) (= x89 x56)))))))
(assert (and (and (and (or (= x74 (x107 (x107 x80 x74) x80)) (or (= x74 (x107 (x107 x89 x74) x89)) (or (= x74 (x107 (x107 x74 x74) x74)) (or (= (x107 (x107 x87 x74) x87) x74) (= (x107 (x107 x36 x74) x36) x74))))) (and (or (or (= x87 (x107 (x107 x89 x87) x89)) (or (= x87 (x107 (x107 x74 x87) x74)) (or (= (x107 (x107 x36 x87) x36) x87) (= x87 (x107 (x107 x87 x87) x87))))) (= x87 (x107 (x107 x80 x87) x80))) (or (or (or (or (= x36 (x107 (x107 x36 x36) x36)) (= (x107 (x107 x87 x36) x87) x36)) (= x36 (x107 (x107 x74 x36) x74))) (= (x107 (x107 x89 x36) x89) x36)) (= x36 (x107 (x107 x80 x36) x80))))) (or (or (= (x107 (x107 x89 x89) x89) x89) (or (or (= x89 (x107 (x107 x36 x89) x36)) (= x89 (x107 (x107 x87 x89) x87))) (= x89 (x107 (x107 x74 x89) x74)))) (= (x107 (x107 x80 x89) x80) x89))) (or (= (x107 (x107 x80 x80) x80) x80) (or (or (= x80 (x107 (x107 x74 x80) x74)) (or (= (x107 (x107 x87 x80) x87) x80) (= x80 (x107 (x107 x36 x80) x36)))) (= x80 (x107 (x107 x89 x80) x89))))))
(assert (and (not (= x80 x89)) (and (and (not (= x74 x89)) (and (not (= x36 x80)) (and (and (and (and (not (= x89 x87)) (and (not (= x87 x36)) (not (= x74 x87)))) (not (= x87 x80))) (not (= x74 x36))) (not (= x89 x36))))) (not (= x80 x74)))))
(check-sat)
(exit)
